TYPE : Vertex Cover
DIMENSION: 25
EDGE_DATA_SECTION:
0 1
0 3
0 20
1 4
1 14
1 17
1 18
1 23
2 3
3 10
3 14
3 18
3 19
4 13
4 16
4 18
4 23
5 10
5 24
6 14
6 16
7 12
7 20
7 21
8 13
8 21
9 16
9 20
10 14
10 24
11 17
11 20
12 14
12 23
13 16
15 19
18 19
18 21
18 23
19 20
19 22
19 24
22 24
-1
VERTEX_DEGREE:
3.0 6.0 1.0 6.0 5.0 2.0 2.0 3.0 2.0 2.0 4.0 2.0 3.0 3.0 5.0 1.0 4.0 2.0 6.0 6.0 5.0 3.0 2.0 4.0 4.0
VERTEX_COVER:
1 3 10 12 13 14 16 17 18 19 20 21 23 24
EOF
